p cnf 362
-10 -98
-11 -101
-12 -104
-13 -107
-14 -110
-15 -113
-16 -116
-17 -119
-18 -122
-19 -124
-20 -126
-21 -128
-22 -130
-23 -132
-24 -134
-25 -136
-26 -138
-27 -140
-28 141
-29 -14
-29 18
14 -18 29
-30 14
-30 -18
-14 18 30
-31 -29
-31 -30
29 30 31
-32 -1
-32 -2
1 2 32
-33 -3
-33 -4
3 4 33
-34 -5
-34 -6
5 6 34
-35 -7
-35 -8
7 8 35
-36 32
-36 33
-32 -33 36
-37 34
-37 35
-34 -35 37
-38 36
-38 37
-36 -37 38
-39 -9
-39 38
9 -38 39
-40 -19
-40 -20
19 20 40
-41 -21
-41 -22
21 22 41
-42 -23
-42 -24
23 24 42
-43 -25
-43 -26
25 26 43
-44 40
-44 41
-40 -41 44
-45 42
-45 43
-42 -43 45
-46 44
-46 45
-44 -45 46
-47 -27
-47 46
27 -46 47
-48 19
-48 -31
-19 31 48
-49 -19
-49 31
19 -31 49
-50 -48
-50 -49
48 49 50
-51 10
-51 20
-10 -20 51
-52 -10
-52 -20
10 20 52
-53 -51
-53 -52
51 52 53
-54 11
-54 21
-11 -21 54
-55 -11
-55 -21
11 21 55
-56 -54
-56 -55
54 55 56
-57 12
-57 22
-12 -22 57
-58 -12
-58 -22
12 22 58
-59 -57
-59 -58
57 58 59
-60 13
-60 23
-13 -23 60
-61 -13
-61 -23
13 23 61
-62 -60
-62 -61
60 61 62
-63 14
-63 24
-14 -24 63
-64 -14
-64 -24
14 24 64
-65 -63
-65 -64
63 64 65
-66 15
-66 25
-15 -25 66
-67 -15
-67 -25
15 25 67
-68 -66
-68 -67
66 67 68
-69 16
-69 26
-16 -26 69
-70 -16
-70 -26
16 26 70
-71 -69
-71 -70
69 70 71
-72 17
-72 27
-17 -27 72
-73 -17
-73 -27
17 27 73
-74 -72
-74 -73
72 73 74
-75 -50
-75 -53
50 53 75
-76 -56
-76 -59
56 59 76
-77 -62
-77 -65
62 65 77
-78 -68
-78 -71
68 71 78
-79 75
-79 76
-75 -76 79
-80 77
-80 78
-77 -78 80
-81 79
-81 80
-79 -80 81
-82 -74
-82 81
74 -81 82
-83 -47
-83 82
47 -82 83
-84 28
-84 83
-28 -83 84
-85 39
-85 84
-39 -84 85
-86 -10
-86 31
10 -31 86
-87 -11
-87 -12
11 12 87
-88 -13
-88 -14
13 14 88
-89 -15
-89 -16
15 16 89
-90 86
-90 87
-86 -87 90
-91 88
-91 89
-88 -89 91
-92 90
-92 91
-90 -91 92
-93 -17
-93 92
17 -92 93
-94 -47
-94 93
47 -93 94
-95 39
-95 -83
-39 83 95
-96 1
-96 -39
-1 39 96
-97 -31
-97 39
31 -39 97
-98 -96
-98 -97
96 97 98
-99 2
-99 -39
-2 39 99
-100 10
-100 39
-10 -39 100
-101 -99
-101 -100
99 100 101
-102 3
-102 -39
-3 39 102
-103 11
-103 39
-11 -39 103
-104 -102
-104 -103
102 103 104
-105 4
-105 -39
-4 39 105
-106 12
-106 39
-12 -39 106
-107 -105
-107 -106
105 106 107
-108 5
-108 -39
-5 39 108
-109 13
-109 39
-13 -39 109
-110 -108
-110 -109
108 109 110
-111 6
-111 -39
-6 39 111
-112 14
-112 39
-14 -39 112
-113 -111
-113 -112
111 112 113
-114 7
-114 -39
-7 39 114
-115 15
-115 39
-15 -39 115
-116 -114
-116 -115
114 115 116
-117 8
-117 -39
-8 39 117
-118 16
-118 39
-16 -39 118
-119 -117
-119 -118
117 118 119
-120 9
-120 -39
-9 39 120
-121 17
-121 39
-17 -39 121
-122 -120
-122 -121
120 121 122
-123 19
-123 39
-19 -39 123
-124 -96
-124 -123
96 123 124
-125 20
-125 39
-20 -39 125
-126 -99
-126 -125
99 125 126
-127 21
-127 39
-21 -39 127
-128 -102
-128 -127
102 127 128
-129 22
-129 39
-22 -39 129
-130 -105
-130 -129
105 129 130
-131 23
-131 39
-23 -39 131
-132 -108
-132 -131
108 131 132
-133 24
-133 39
-24 -39 133
-134 -111
-134 -133
111 133 134
-135 25
-135 39
-25 -39 135
-136 -114
-136 -135
114 135 136
-137 26
-137 39
-26 -39 137
-138 -117
-138 -137
117 137 138
-139 27
-139 39
-27 -39 139
-140 -120
-140 -139
120 139 140
-141 -28
-141 95
28 -95 141
-142 -85
-142 -94
85 94 142
-142
